NAME: rue_20_8
TYPE: TSP
DIMENSION: 20
EDGE_WEIGHT_TYPE: EUC_2D
NODE_COORD_SECTION
1 14 2
2 32 33
3 17 6
4 6 25
5 12 38
6 20 30
7 6 36
8 34 10
9 33 17
10 31 24
11 40 1
12 40 25
13 35 34
14 39 22
15 10 24
16 31 31
17 19 12
18 28 21
19 34 5
20 40 19

